\ Model SP_primal_LP_gurobi_copy
\ LP format - for model browsing. Use MPS format to capture full model detail.
Minimize
 
Subject To
 c_cost_PV_cut_re[64]: - 0.04 y_cut[64] + y_cost_cut[64] = 0
 c_cost_PV_cut_re[65]: - 0.04 y_cut[65] + y_cost_cut[65] = 0
 c_cost_PV_cut_re[66]: - 0.04 y_cut[66] + y_cost_cut[66] = 0
 c_cost_PV_cut_re[67]: - 0.04 y_cut[67] + y_cost_cut[67] = 0
 c_cost_PV_cut_re[68]: - 0.04 y_cut[68] + y_cost_cut[68] = 0
 c_cost_PV_cut_re[69]: - 0.04 y_cut[69] + y_cost_cut[69] = 0
 c_cost_PV_cut_re[70]: - 0.04 y_cut[70] + y_cost_cut[70] = 0
 c_cost_PV_cut_re[71]: - 0.04 y_cut[71] + y_cost_cut[71] = 0
 c_cost_PV_cut_re[72]: - 0.04 y_cut[72] + y_cost_cut[72] = 0
 c_cost_PV_cut_re[73]: - 0.04 y_cut[73] + y_cost_cut[73] = 0
 c_cost_PV_cut_re[74]: - 0.04 y_cut[74] + y_cost_cut[74] = 0
 c_cost_PV_cut_re[75]: - 0.04 y_cut[75] + y_cost_cut[75] = 0
 c_cost_PV_cut_re[76]: - 0.04 y_cut[76] + y_cost_cut[76] = 0
 c_cost_PV_cut_re[77]: - 0.04 y_cut[77] + y_cost_cut[77] = 0
 c_cost_PV_cut_re[78]: - 0.04 y_cut[78] + y_cost_cut[78] = 0
 c_cost_PV_cut_re[79]: - 0.04 y_cut[79] + y_cost_cut[79] = 0
 c_cost_PV_cut_re[80]: - 0.04 y_cut[80] + y_cost_cut[80] = 0
 c_cost_PV_cut_re[81]: - 0.04 y_cut[81] + y_cost_cut[81] = 0
 c_cost_PV_cut_re[82]: - 0.04 y_cut[82] + y_cost_cut[82] = 0
 c_cost_PV_cut_re[83]: - 0.04 y_cut[83] + y_cost_cut[83] = 0
 c_cost_PV_cut_re[84]: - 0.04 y_cut[84] + y_cost_cut[84] = 0
 c_cost_PV_cut_re[85]: - 0.04 y_cut[85] + y_cost_cut[85] = 0
 c_cost_PV_cut_re[86]: - 0.04 y_cut[86] + y_cost_cut[86] = 0
 c_cost_PV_cut_re[87]: - 0.04 y_cut[87] + y_cost_cut[87] = 0
 c_cost_PV_cut_re[88]: - 0.04 y_cut[88] + y_cost_cut[88] = 0
 c_cost_PV_cut_re[89]: - 0.04 y_cut[89] + y_cost_cut[89] = 0
 c_cost_PV_cut_re[90]: - 0.04 y_cut[90] + y_cost_cut[90] = 0
 c_cost_PV_cut_re[91]: - 0.04 y_cut[91] + y_cost_cut[91] = 0
 c_cost_PV_cut_re[92]: - 0.04 y_cut[92] + y_cost_cut[92] = 0
 c_cost_PV_cut_re[93]: - 0.04 y_cut[93] + y_cost_cut[93] = 0
 c_cost_PV_cut_re[94]: - 0.04 y_cut[94] + y_cost_cut[94] = 0
 c_cost_PV_cut_re[95]: - 0.04 y_cut[95] + y_cost_cut[95] = 0
 c_reserve_pos[64]: y_pos[64] <= 0
 c_reserve_pos[65]: y_pos[65] <= 0
 c_reserve_pos[66]: y_pos[66] <= 0
 c_reserve_pos[67]: y_pos[67] <= 0
 c_reserve_pos[68]: y_pos[68] <= 0
 c_reserve_pos[69]: y_pos[69] <= 0
 c_reserve_pos[70]: y_pos[70] <= 0
 c_reserve_pos[71]: y_pos[71] <= 0
 c_reserve_pos[72]: y_pos[72] <= 0
 c_reserve_pos[73]: y_pos[73] <= 0
 c_reserve_pos[74]: y_pos[74] <= 0
 c_reserve_pos[75]: y_pos[75] <= 0
 c_reserve_pos[76]: y_pos[76] <= 0
 c_reserve_pos[77]: y_pos[77] <= 0
 c_reserve_pos[78]: y_pos[78] <= 0
 c_reserve_pos[79]: y_pos[79] <= 0
 c_reserve_pos[80]: y_pos[80] <= 0
 c_reserve_pos[81]: y_pos[81] <= 0
 c_reserve_pos[82]: y_pos[82] <= 0
 c_reserve_pos[83]: y_pos[83] <= 0
 c_reserve_pos[84]: y_pos[84] <= 0
 c_reserve_pos[85]: y_pos[85] <= 0
 c_reserve_pos[86]: y_pos[86] <= 0
 c_reserve_pos[87]: y_pos[87] <= 0
 c_reserve_pos[88]: y_pos[88] <= 0
 c_reserve_pos[89]: y_pos[89] <= 0
 c_reserve_pos[90]: y_pos[90] <= 0
 c_reserve_pos[91]: y_pos[91] <= 0
 c_reserve_pos[92]: y_pos[92] <= 0
 c_reserve_pos[93]: y_pos[93] <= 0
 c_reserve_pos[94]: y_pos[94] <= 0
 c_reserve_pos[95]: y_pos[95] <= 0
 c_S_max[63]: y_S[63] <= 453.6
 c_SOC_re[64]: - 0.2325 y_chg[64] + 0.2688172043010753 y_dis[64] - y_S[63]
   + y_S[64] = 0
 c_SOC_re[65]: - 0.2325 y_chg[65] + 0.2688172043010753 y_dis[65] - y_S[64]
   + y_S[65] = 0
 c_SOC_re[66]: - 0.2325 y_chg[66] + 0.2688172043010753 y_dis[66] - y_S[65]
   + y_S[66] = 0
 c_SOC_re[67]: - 0.2325 y_chg[67] + 0.2688172043010753 y_dis[67] - y_S[66]
   + y_S[67] = 0
 c_SOC_re[68]: - 0.2325 y_chg[68] + 0.2688172043010753 y_dis[68] - y_S[67]
   + y_S[68] = 0
 c_SOC_re[69]: - 0.2325 y_chg[69] + 0.2688172043010753 y_dis[69] - y_S[68]
   + y_S[69] = 0
 c_SOC_re[70]: - 0.2325 y_chg[70] + 0.2688172043010753 y_dis[70] - y_S[69]
   + y_S[70] = 0
 c_SOC_re[71]: - 0.2325 y_chg[71] + 0.2688172043010753 y_dis[71] - y_S[70]
   + y_S[71] = -1.279308420357552
 c_SOC_re[72]: - 0.2325 y_chg[72] + 0.2688172043010753 y_dis[72] - y_S[71]
   + y_S[72] = -5.358925783049544
 c_SOC_re[73]: - 0.2325 y_chg[73] + 0.2688172043010753 y_dis[73] - y_S[72]
   + y_S[73] = -9.43652469576379
 c_SOC_re[74]: - 0.2325 y_chg[74] + 0.2688172043010753 y_dis[74] - y_S[73]
   + y_S[74] = -9.381718789377519
 c_SOC_re[75]: - 0.2325 y_chg[75] + 0.2688172043010753 y_dis[75] - y_S[74]
   + y_S[75] = -9.354835428217406
 c_SOC_re[76]: - 0.2325 y_chg[76] + 0.2688172043010753 y_dis[76] - y_S[75]
   + y_S[76] = -9.05914306640625
 c_SOC_re[77]: - 0.2325 y_chg[77] + 0.2688172043010753 y_dis[77] - y_S[76]
   + y_S[77] = -9.147849134219589
 c_SOC_re[78]: - 0.2325 y_chg[78] + 0.2688172043010753 y_dis[78] - y_S[77]
   + y_S[78] = -8.930107855027721
 c_SOC_re[79]: - 0.2325 y_chg[79] + 0.2688172043010753 y_dis[79] - y_S[78]
   + y_S[79] = -9.032259705246135
 c_SOC_re[80]: - 0.2325 y_chg[80] + 0.2688172043010753 y_dis[80] - y_S[79]
   + y_S[80] = -8.865594351163473
 c_SOC_re[81]: - 0.2325 y_chg[81] + 0.2688172043010753 y_dis[81] - y_S[80]
   + y_S[81] = -8.747314124978999
 c_SOC_re[82]: - 0.2325 y_chg[82] + 0.2688172043010753 y_dis[82] - y_S[81]
   + y_S[82] = -9.032259705246135
 c_SOC_re[83]: - 0.2325 y_chg[83] + 0.2688172043010753 y_dis[83] - y_S[82]
   + y_S[83] = -8.672045635920698
 c_SOC_re[84]: - 0.2325 y_chg[84] + 0.2688172043010753 y_dis[84] - y_S[83]
   + y_S[84] = -8.930107855027721
 c_SOC_re[85]: - 0.2325 y_chg[85] + 0.2688172043010753 y_dis[85] - y_S[84]
   + y_S[85] = -8.811827628843245
 c_SOC_re[86]: - 0.2325 y_chg[86] + 0.2688172043010753 y_dis[86] - y_S[85]
   + y_S[86] = -8.774197486139112
 c_SOC_re[87]: - 0.2325 y_chg[87] + 0.2688172043010753 y_dis[87] - y_S[86]
   + y_S[87] = -9.018813922841062
 c_SOC_re[88]: - 0.2325 y_chg[88] + 0.2688172043010753 y_dis[88] - y_S[87]
   + y_S[88] = -8.825265207598285
 c_SOC_re[89]: - 0.2325 y_chg[89] + 0.2688172043010753 y_dis[89] - y_S[88]
   + y_S[89] = -9.05914306640625
 c_SOC_re[90]: - 0.2325 y_chg[90] + 0.2688172043010753 y_dis[90] - y_S[89]
   + y_S[90] = -9.147849134219589
 c_SOC_re[91]: - 0.2325 y_chg[91] + 0.2688172043010753 y_dis[91] - y_S[90]
   + y_S[91] = -9.00537634408602
 c_SOC_re[92]: - 0.2325 y_chg[92] + 0.2688172043010753 y_dis[92] - y_S[91]
   + y_S[92] = -2.884372025833386
 c_SOC_re[93]: - 0.2325 y_chg[93] + 0.2688172043010753 y_dis[93] - y_S[92]
   + y_S[93] = -9.317205285513273
 c_SOC_re[94]: - 0.2325 y_chg[94] + 0.2688172043010753 y_dis[94] - y_S[93]
   + y_S[94] = -9.650535993678595
 c_SOC_re[95]: - 0.2325 y_chg[95] + 0.2688172043010753 y_dis[95] - y_S[94]
   + y_S[95] = -9.67741935483871
 c_ESS_last_period: y_S[95] = 187.5
 c_y_PV[64]: y_PV[64] = 220.4265521845624
 c_y_PV[65]: y_PV[65] = 194.0893191520818
 c_y_PV[66]: y_PV[66] = 167.7542254688667
 c_y_PV[67]: y_PV[67] = 139.0684270297789
 c_y_PV[68]: y_PV[68] = 117.3256393753269
 c_y_PV[69]: y_PV[69] = 86.85834613879265
 c_y_PV[70]: y_PV[70] = 35.94077428141492
 c_y_PV[71]: y_PV[71] = 26.58257469288639
 c_y_PV[72]: y_PV[72] = 14.8030144242141
 c_y_PV[73]: y_PV[73] = 2.398965090032529
 c_y_PV[74]: y_PV[74] = 0
 c_y_PV[75]: y_PV[75] = 0
 c_y_PV[76]: y_PV[76] = 0
 c_y_PV[77]: y_PV[77] = 0
 c_y_PV[78]: y_PV[78] = 0
 c_y_PV[79]: y_PV[79] = 0
 c_y_PV[80]: y_PV[80] = 0
 c_y_PV[81]: y_PV[81] = 0
 c_y_PV[82]: y_PV[82] = 0
 c_y_PV[83]: y_PV[83] = 0
 c_y_PV[84]: y_PV[84] = 0
 c_y_PV[85]: y_PV[85] = 0
 c_y_PV[86]: y_PV[86] = 0
 c_y_PV[87]: y_PV[87] = 0
 c_y_PV[88]: y_PV[88] = 0
 c_y_PV[89]: y_PV[89] = 0
 c_y_PV[90]: y_PV[90] = 0
 c_y_PV[91]: y_PV[91] = 0
 c_y_PV[92]: y_PV[92] = 0
 c_y_PV[93]: y_PV[93] = 0
 c_y_PV[94]: y_PV[94] = 0
 c_y_PV[95]: y_PV[95] = 0
 c_y_load[64]: y_load[64] = 376.7661853625831
 c_y_load[65]: y_load[65] = 374.2198800299398
 c_y_load[66]: y_load[66] = 372.7437463893543
 c_y_load[67]: y_load[67] = 374.4043819403332
 c_y_load[68]: y_load[68] = 371.4025626136623
 c_y_load[69]: y_load[69] = 374.0474803796952
 c_y_load[70]: y_load[70] = 373.4597107036063
 c_y_load[71]: y_load[71] = 373.2270494114852
 c_y_load[72]: y_load[72] = 366.6341913238439
 c_y_load[73]: y_load[73] = 368.5383757888469
 c_y_load[74]: y_load[74] = 365.1491408764088
 c_y_load[75]: y_load[75] = 365.0293699466277
 c_y_load[76]: y_load[76] = 354.35819615632
 c_y_load[77]: y_load[77] = 354.7432269506303
 c_y_load[78]: y_load[78] = 353.7981199025958
 c_y_load[79]: y_load[79] = 354.2415110873438
 c_y_load[80]: y_load[80] = 346.1494507094423
 c_y_load[81]: y_load[81] = 345.6467583285605
 c_y_load[82]: y_load[82] = 346.8577858857251
 c_y_load[83]: y_load[83] = 345.3268623211679
 c_y_load[84]: y_load[84] = 341.409304312704
 c_y_load[85]: y_load[85] = 340.9138839760321
 c_y_load[86]: y_load[86] = 340.7562704439542
 c_y_load[87]: y_load[87] = 341.7808523454174
 c_y_load[88]: y_load[88] = 335.3436173203118
 c_y_load[89]: y_load[89] = 336.3070513403934
 c_y_load[90]: y_load[90] = 336.6724681030518
 c_y_load[91]: y_load[91] = 336.0855643657022
 c_y_load[92]: y_load[92] = 335.5804930964557
 c_y_load[93]: y_load[93] = 334.6906537359399
 c_y_load[94]: y_load[94] = 336.0528730484947
 c_y_load[95]: y_load[95] = 336.1627354445777
 c_y_add[64]: y_add[64] <= 106.4933116542441
 c_y_add[65]: y_add[65] <= 77.16517083095889
 c_y_add[66]: y_add[66] <= 46.96958533324124
 c_y_add[67]: y_add[67] <= 11.42156959032491
 c_y_add[68]: y_add[68] <= 0
 c_y_add[69]: y_add[69] <= 0
 c_y_add[70]: y_add[70] <= 0
 c_y_add[71]: y_add[71] <= 0
 c_y_add[72]: y_add[72] <= 0
 c_y_add[73]: y_add[73] <= 0
 c_y_add[74]: y_add[74] <= 0
 c_y_add[75]: y_add[75] <= 0
 c_y_add[76]: y_add[76] <= 0
 c_y_add[77]: y_add[77] <= 0
 c_y_add[78]: y_add[78] <= 0
 c_y_add[79]: y_add[79] <= 0
 c_y_add[80]: y_add[80] <= 0
 c_y_add[81]: y_add[81] <= 0
 c_y_add[82]: y_add[82] <= 0
 c_y_add[83]: y_add[83] <= 0
 c_y_add[84]: y_add[84] <= 0
 c_y_add[85]: y_add[85] <= 0
 c_y_add[86]: y_add[86] <= 0
 c_y_add[87]: y_add[87] <= 0
 c_y_add[88]: y_add[88] <= 0
 c_y_add[89]: y_add[89] <= 0
 c_y_add[90]: y_add[90] <= 0
 c_y_add[91]: y_add[91] <= 0
 c_y_add[92]: y_add[92] <= 0
 c_y_add[93]: y_add[93] <= 0
 c_y_add[94]: y_add[94] <= 0
 c_y_add[95]: y_add[95] <= 0
 c_power_balance_eq[64]: y_pos[64] - y_neg[64] - y_chg[64] + y_dis[64]
   + y_PV[64] - y_cut[64] + y_add[64] - y_load[64] = -43.50668834575595
 c_power_balance_eq[65]: y_pos[65] - y_neg[65] - y_chg[65] + y_dis[65]
   + y_PV[65] - y_cut[65] + y_add[65] - y_load[65] = -72.83482916904111
 c_power_balance_eq[66]: y_pos[66] - y_neg[66] - y_chg[66] + y_dis[66]
   + y_PV[66] - y_cut[66] + y_add[66] - y_load[66] = -103.0304146667588
 c_power_balance_eq[67]: y_pos[67] - y_neg[67] - y_chg[67] + y_dis[67]
   + y_PV[67] - y_cut[67] + y_add[67] - y_load[67] = -138.5784304096751
 c_power_balance_eq[68]: y_pos[68] - y_neg[68] - y_chg[68] + y_dis[68]
   + y_PV[68] - y_cut[68] + y_add[68] - y_load[68] = -170.7203242397961
 c_power_balance_eq[69]: y_pos[69] - y_neg[69] - y_chg[69] + y_dis[69]
   + y_PV[69] - y_cut[69] + y_add[69] - y_load[69] = -207.3114077464157
 c_power_balance_eq[70]: y_pos[70] - y_neg[70] - y_chg[70] + y_dis[70]
   + y_PV[70] - y_cut[70] + y_add[70] - y_load[70] = -264.3733309417465
 c_power_balance_eq[71]: y_pos[71] - y_neg[71] - y_chg[71] + y_dis[71]
   + y_PV[71] - y_cut[71] + y_add[71] - y_load[71] = -274.7590273237301
 c_power_balance_eq[72]: y_pos[72] - y_neg[72] - y_chg[72] + y_dis[72]
   + y_PV[72] - y_cut[72] + y_add[72] - y_load[72] = -289.9352039129443
 c_power_balance_eq[73]: y_pos[73] - y_neg[73] - y_chg[73] + y_dis[73]
   + y_PV[73] - y_cut[73] + y_add[73] - y_load[73] = -305.1038718682413
 c_power_balance_eq[74]: y_pos[74] - y_neg[74] - y_chg[74] + y_dis[74]
   + y_PV[74] - y_cut[74] + y_add[74] - y_load[74] = -304.8999938964844
 c_power_balance_eq[75]: y_pos[75] - y_neg[75] - y_chg[75] + y_dis[75]
   + y_PV[75] - y_cut[75] + y_add[75] - y_load[75] = -304.7999877929688
 c_power_balance_eq[76]: y_pos[76] - y_neg[76] - y_chg[76] + y_dis[76]
   + y_PV[76] - y_cut[76] + y_add[76] - y_load[76] = -303.7000122070313
 c_power_balance_eq[77]: y_pos[77] - y_neg[77] - y_chg[77] + y_dis[77]
   + y_PV[77] - y_cut[77] + y_add[77] - y_load[77] = -304.0299987792969
 c_power_balance_eq[78]: y_pos[78] - y_neg[78] - y_chg[78] + y_dis[78]
   + y_PV[78] - y_cut[78] + y_add[78] - y_load[78] = -303.2200012207031
 c_power_balance_eq[79]: y_pos[79] - y_neg[79] - y_chg[79] + y_dis[79]
   + y_PV[79] - y_cut[79] + y_add[79] - y_load[79] = -303.6000061035156
 c_power_balance_eq[80]: y_pos[80] - y_neg[80] - y_chg[80] + y_dis[80]
   + y_PV[80] - y_cut[80] + y_add[80] - y_load[80] = -302.9800109863281
 c_power_balance_eq[81]: y_pos[81] - y_neg[81] - y_chg[81] + y_dis[81]
   + y_PV[81] - y_cut[81] + y_add[81] - y_load[81] = -302.5400085449219
 c_power_balance_eq[82]: y_pos[82] - y_neg[82] - y_chg[82] + y_dis[82]
   + y_PV[82] - y_cut[82] + y_add[82] - y_load[82] = -303.6000061035156
 c_power_balance_eq[83]: y_pos[83] - y_neg[83] - y_chg[83] + y_dis[83]
   + y_PV[83] - y_cut[83] + y_add[83] - y_load[83] = -302.260009765625
 c_power_balance_eq[84]: y_pos[84] - y_neg[84] - y_chg[84] + y_dis[84]
   + y_PV[84] - y_cut[84] + y_add[84] - y_load[84] = -303.2200012207031
 c_power_balance_eq[85]: y_pos[85] - y_neg[85] - y_chg[85] + y_dis[85]
   + y_PV[85] - y_cut[85] + y_add[85] - y_load[85] = -302.7799987792969
 c_power_balance_eq[86]: y_pos[86] - y_neg[86] - y_chg[86] + y_dis[86]
   + y_PV[86] - y_cut[86] + y_add[86] - y_load[86] = -302.6400146484375
 c_power_balance_eq[87]: y_pos[87] - y_neg[87] - y_chg[87] + y_dis[87]
   + y_PV[87] - y_cut[87] + y_add[87] - y_load[87] = -303.5499877929688
 c_power_balance_eq[88]: y_pos[88] - y_neg[88] - y_chg[88] + y_dis[88]
   + y_PV[88] - y_cut[88] + y_add[88] - y_load[88] = -302.8299865722656
 c_power_balance_eq[89]: y_pos[89] - y_neg[89] - y_chg[89] + y_dis[89]
   + y_PV[89] - y_cut[89] + y_add[89] - y_load[89] = -303.7000122070313
 c_power_balance_eq[90]: y_pos[90] - y_neg[90] - y_chg[90] + y_dis[90]
   + y_PV[90] - y_cut[90] + y_add[90] - y_load[90] = -304.0299987792969
 c_power_balance_eq[91]: y_pos[91] - y_neg[91] - y_chg[91] + y_dis[91]
   + y_PV[91] - y_cut[91] + y_add[91] - y_load[91] = -303.5
 c_power_balance_eq[92]: y_pos[92] - y_neg[92] - y_chg[92] + y_dis[92]
   + y_PV[92] - y_cut[92] + y_add[92] - y_load[92] = -305.4700012207031
 c_power_balance_eq[93]: y_pos[93] - y_neg[93] - y_chg[93] + y_dis[93]
   + y_PV[93] - y_cut[93] + y_add[93] - y_load[93] = -304.6600036621094
 c_power_balance_eq[94]: y_pos[94] - y_neg[94] - y_chg[94] + y_dis[94]
   + y_PV[94] - y_cut[94] + y_add[94] - y_load[94] = -305.8999938964844
 c_power_balance_eq[95]: y_pos[95] - y_neg[95] - y_chg[95] + y_dis[95]
   + y_PV[95] - y_cut[95] + y_add[95] - y_load[95] = -306
Bounds
 y_pos[64] free
 y_pos[65] free
 y_pos[66] free
 y_pos[67] free
 y_pos[68] free
 y_pos[69] free
 y_pos[70] free
 y_pos[71] free
 y_pos[72] free
 y_pos[73] free
 y_pos[74] free
 y_pos[75] free
 y_pos[76] free
 y_pos[77] free
 y_pos[78] free
 y_pos[79] free
 y_pos[80] free
 y_pos[81] free
 y_pos[82] free
 y_pos[83] free
 y_pos[84] free
 y_pos[85] free
 y_pos[86] free
 y_pos[87] free
 y_pos[88] free
 y_pos[89] free
 y_pos[90] free
 y_pos[91] free
 y_pos[92] free
 y_pos[93] free
 y_pos[94] free
 y_pos[95] free
 y_chg[77] free
 y_chg[79] free
 y_dis[64] free
 y_dis[65] free
 y_dis[66] free
 y_dis[67] free
 y_dis[68] free
 y_dis[69] free
 y_dis[70] free
 y_dis[71] free
 y_dis[72] free
 y_dis[73] free
 y_dis[74] free
 y_dis[75] free
 y_dis[76] free
 y_dis[78] free
 y_dis[80] free
 y_dis[81] free
 y_dis[82] free
 y_dis[83] free
 y_dis[84] free
 y_dis[85] free
 y_dis[86] free
 y_dis[87] free
 y_dis[88] free
 y_dis[89] free
 y_dis[90] free
 y_dis[91] free
 y_dis[92] free
 y_dis[93] free
 y_dis[94] free
 y_dis[95] free
 y_S[63] free
 y_S[64] free
 y_S[65] free
 y_S[66] free
 y_S[67] free
 y_S[68] free
 y_S[69] free
 y_S[70] free
 y_S[71] free
 y_S[72] free
 y_S[73] free
 y_S[74] free
 y_S[75] free
 y_S[76] free
 y_S[77] free
 y_S[78] free
 y_S[79] free
 y_S[80] free
 y_S[81] free
 y_S[82] free
 y_S[83] free
 y_S[84] free
 y_S[85] free
 y_S[86] free
 y_S[87] free
 y_S[88] free
 y_S[89] free
 y_S[90] free
 y_S[91] free
 y_S[92] free
 y_S[93] free
 y_S[94] free
 y_S[95] free
 y_PV[64] free
 y_PV[65] free
 y_PV[66] free
 y_PV[67] free
 y_PV[68] free
 y_PV[69] free
 y_PV[70] free
 y_PV[71] free
 y_PV[72] free
 y_PV[73] free
 y_PV[74] free
 y_PV[75] free
 y_PV[76] free
 y_PV[77] free
 y_PV[78] free
 y_PV[79] free
 y_PV[80] free
 y_PV[81] free
 y_PV[82] free
 y_PV[83] free
 y_PV[84] free
 y_PV[85] free
 y_PV[86] free
 y_PV[87] free
 y_PV[88] free
 y_PV[89] free
 y_PV[90] free
 y_PV[91] free
 y_PV[92] free
 y_PV[93] free
 y_PV[94] free
 y_PV[95] free
 y_cut[64] free
 y_cut[65] free
 y_cut[66] free
 y_cut[67] free
 y_cut[68] free
 y_cut[69] free
 y_cut[70] free
 y_cut[71] free
 y_cut[72] free
 y_cut[73] free
 y_cut[74] free
 y_cut[75] free
 y_cut[76] free
 y_cut[77] free
 y_cut[78] free
 y_cut[79] free
 y_cut[80] free
 y_cut[81] free
 y_cut[82] free
 y_cut[83] free
 y_cut[84] free
 y_cut[85] free
 y_cut[86] free
 y_cut[87] free
 y_cut[88] free
 y_cut[89] free
 y_cut[90] free
 y_cut[91] free
 y_cut[92] free
 y_cut[93] free
 y_cut[94] free
 y_cut[95] free
 y_add[64] free
 y_add[65] free
 y_add[66] free
 y_add[67] free
 y_add[68] free
 y_add[69] free
 y_add[70] free
 y_add[71] free
 y_add[72] free
 y_add[73] free
 y_add[74] free
 y_add[75] free
 y_add[76] free
 y_add[77] free
 y_add[78] free
 y_add[79] free
 y_add[80] free
 y_add[81] free
 y_add[82] free
 y_add[83] free
 y_add[84] free
 y_add[85] free
 y_add[86] free
 y_add[87] free
 y_add[88] free
 y_add[89] free
 y_add[90] free
 y_add[91] free
 y_add[92] free
 y_add[93] free
 y_add[94] free
 y_add[95] free
 y_load[64] free
 y_load[65] free
 y_load[66] free
 y_load[67] free
 y_load[68] free
 y_load[69] free
 y_load[70] free
 y_load[71] free
 y_load[72] free
 y_load[73] free
 y_load[74] free
 y_load[75] free
 y_load[76] free
 y_load[77] free
 y_load[78] free
 y_load[79] free
 y_load[80] free
 y_load[81] free
 y_load[82] free
 y_load[83] free
 y_load[84] free
 y_load[85] free
 y_load[86] free
 y_load[87] free
 y_load[88] free
 y_load[89] free
 y_load[90] free
 y_load[91] free
 y_load[92] free
 y_load[93] free
 y_load[94] free
 y_load[95] free
End
